nK = 2968;
nT = 8;
nI = 21;
L = 29;
TT = 603;
np = 1;
nc = 3;
b = [41, 23, 49, 45, 53, 27, 57, 64, 33, 31, 65, 58, 23, 36, 42, 33, 50, 52, 50, 63, 33];
d = [126, 139, 116, 130, 109, 117, 127, 112, 112, 130, 139, 90, 117, 106, 133, 136, 78, 116, 130, 145, 122];
m = [1.8, 1.1, 2.1, 1.9, 1.9, 1.9, 1, 1.3, 1.4, 1, 1.1, 2.5, 1.7, 1.2, 1.4, 1.8, 1.4, 1.7, 2.1, 2.4, 1.4];
pt = [0.27, 0.3, 0.28, 0.2, 0.26, 0.27, 0.29, 0.26];
st = [15.93, 13.2, 12.32, 9.4, 13.52, 10.8, 12.18, 10.92];
arc = {<1, 0, 1, 1, 0, 0, 0, [1, 1, 1, 1, 1, 1, 1, 1]>, <2, 1, 2, 1, 0, 0, 0, [1, 1, 1, 1, 1, 1, 1, 1]>, <3, 2, 3, 1, 0, 0, 0, [1, 1, 1, 1, 1, 1, 1, 1]>, <4, 3, 4, 1, 0, 0, 0, [1, 1, 1, 1, 1, 1, 1, 1]>, <5, 4, 5, 1, 0, 0, 0, [1, 1, 1, 1, 1, 1, 1, 1]>, <6, 5, 6, 1, 0, 0, 0, [1, 1, 1, 1, 1, 1, 1, 1]>, <7, 6, 7, 1, 0, 0, 0, [1, 1, 1, 1, 1, 1, 1, 1]>, <8, 7, 8, 1, 0, 0, 0, [1, 1, 1, 1, 1, 1, 1, 1]>, <9, 8, 9, 1, 0, 0, 0, [1, 1, 1, 1, 1, 1, 1, 1]>, <10, 9, 10, 1, 0, 0, 0, [1, 1, 1, 1, 1, 1, 1, 1]>, <11, 10, 11, 1, 0, 0, 0, [1, 1, 1, 1, 1, 1, 1, 1]>, <12, 11, 12, 1, 0, 0, 0, [1, 1, 1, 1, 1, 1, 1, 1]>, <13, 12, 13, 1, 0, 0, 0, [1, 1, 1, 1, 1, 1, 1, 1]>, <14, 13, 14, 1, 0, 0, 0, [1, 1, 1, 1, 1, 1, 1, 1]>, <15, 14, 15, 1, 0, 0, 0, [1, 1, 1, 1, 1, 1, 1, 1]>, <16, 15, 16, 1, 0, 0, 0, [1, 1, 1, 1, 1, 1, 1, 1]>, <17, 16, 17, 1, 0, 0, 0, [1, 1, 1, 1, 1, 1, 1, 1]>, <18, 17, 18, 1, 0, 0, 0, [1, 1, 1, 1, 1, 1, 1, 1]>, <19, 18, 19, 1, 0, 0, 0, [1, 1, 1, 1, 1, 1, 1, 1]>, <20, 19, 20, 1, 0, 0, 0, [1, 1, 1, 1, 1, 1, 1, 1]>, <21, 20, 21, 1, 0, 0, 0, [1, 1, 1, 1, 1, 1, 1, 1]>, <22, 21, 22, 1, 0, 0, 0, [1, 1, 1, 1, 1, 1, 1, 1]>, <23, 22, 23, 1, 0, 0, 0, [1, 1, 1, 1, 1, 1, 1, 1]>, <24, 23, 24, 1, 0, 0, 0, [1, 1, 1, 1, 1, 1, 1, 1]>, <25, 24, 25, 1, 0, 0, 0, [1, 1, 1, 1, 1, 1, 1, 1]>, <26, 25, 26, 1, 0, 0, 0, [1, 1, 1, 1, 1, 1, 1, 1]>, <27, 26, 27, 1, 0, 0, 0, [1, 1, 1, 1, 1, 1, 1, 1]>, <28, 27, 28, 1, 0, 0, 0, [1, 1, 1, 1, 1, 1, 1, 1]>, <29, 28, 29, 1, 0, 0, 0, [1, 1, 1, 1, 1, 1, 1, 1]>, <30, 0, 15, 15, 1, 1, 0, [0, 0, 0, 0, 0, 1, 1, 0]>, <31, 1, 16, 15, 1, 1, 0, [0, 0, 0, 0, 0, 1, 1, 0]>, <32, 2, 17, 15, 1, 1, 0, [0, 0, 0, 0, 0, 1, 1, 0]>, <33, 3, 18, 15, 1, 1, 0, [0, 0, 0, 0, 0, 1, 1, 0]>, <34, 4, 19, 15, 1, 1, 0, [0, 0, 0, 0, 0, 1, 1, 0]>, <35, 5, 20, 15, 1, 1, 0, [0, 0, 0, 0, 0, 1, 1, 0]>, <36, 6, 21, 15, 1, 1, 0, [0, 0, 0, 0, 0, 1, 1, 0]>, <37, 7, 22, 15, 1, 1, 0, [0, 0, 0, 0, 0, 1, 1, 0]>, <38, 8, 23, 15, 1, 1, 0, [0, 0, 0, 0, 0, 1, 1, 0]>, <39, 9, 24, 15, 1, 1, 0, [0, 0, 0, 0, 0, 1, 1, 0]>, <40, 10, 25, 15, 1, 1, 0, [0, 0, 0, 0, 0, 1, 1, 0]>, <41, 11, 26, 15, 1, 1, 0, [0, 0, 0, 0, 0, 1, 1, 0]>, <42, 12, 27, 15, 1, 1, 0, [0, 0, 0, 0, 0, 1, 1, 0]>, <43, 13, 28, 15, 1, 1, 0, [0, 0, 0, 0, 0, 1, 1, 0]>, <44, 14, 29, 15, 1, 1, 0, [0, 0, 0, 0, 0, 1, 1, 0]>, <45, 0, 14, 14, 2, 0, 0, [0, 0, 1, 1, 0, 0, 0, 0]>, <46, 1, 15, 14, 2, 0, 0, [0, 0, 1, 1, 0, 0, 0, 0]>, <47, 2, 16, 14, 2, 0, 0, [0, 0, 1, 1, 0, 0, 0, 0]>, <48, 3, 17, 14, 2, 0, 0, [0, 0, 1, 1, 0, 0, 0, 0]>, <49, 4, 18, 14, 2, 0, 0, [0, 0, 1, 1, 0, 0, 0, 0]>, <50, 5, 19, 14, 2, 0, 0, [0, 0, 1, 1, 0, 0, 0, 0]>, <51, 6, 20, 14, 2, 0, 0, [0, 0, 1, 1, 0, 0, 0, 0]>, <52, 7, 21, 14, 2, 0, 0, [0, 0, 1, 1, 0, 0, 0, 0]>, <53, 8, 22, 14, 2, 0, 0, [0, 0, 1, 1, 0, 0, 0, 0]>, <54, 9, 23, 14, 2, 0, 0, [0, 0, 1, 1, 0, 0, 0, 0]>, <55, 10, 24, 14, 2, 0, 0, [0, 0, 1, 1, 0, 0, 0, 0]>, <56, 11, 25, 14, 2, 0, 0, [0, 0, 1, 1, 0, 0, 0, 0]>, <57, 12, 26, 14, 2, 0, 0, [0, 0, 1, 1, 0, 0, 0, 0]>, <58, 13, 27, 14, 2, 0, 0, [0, 0, 1, 1, 0, 0, 0, 0]>, <59, 14, 28, 14, 2, 0, 0, [0, 0, 1, 1, 0, 0, 0, 0]>, <60, 15, 29, 14, 2, 0, 0, [0, 0, 1, 1, 0, 0, 0, 0]>, <61, 0, 16, 16, 3, 1, 0, [0, 0, 0, 1, 1, 0, 0, 0]>, <62, 1, 17, 16, 3, 1, 0, [0, 0, 0, 1, 1, 0, 0, 0]>, <63, 2, 18, 16, 3, 1, 0, [0, 0, 0, 1, 1, 0, 0, 0]>, <64, 3, 19, 16, 3, 1, 0, [0, 0, 0, 1, 1, 0, 0, 0]>, <65, 4, 20, 16, 3, 1, 0, [0, 0, 0, 1, 1, 0, 0, 0]>, <66, 5, 21, 16, 3, 1, 0, [0, 0, 0, 1, 1, 0, 0, 0]>, <67, 6, 22, 16, 3, 1, 0, [0, 0, 0, 1, 1, 0, 0, 0]>, <68, 7, 23, 16, 3, 1, 0, [0, 0, 0, 1, 1, 0, 0, 0]>, <69, 8, 24, 16, 3, 1, 0, [0, 0, 0, 1, 1, 0, 0, 0]>, <70, 9, 25, 16, 3, 1, 0, [0, 0, 0, 1, 1, 0, 0, 0]>, <71, 10, 26, 16, 3, 1, 0, [0, 0, 0, 1, 1, 0, 0, 0]>, <72, 11, 27, 16, 3, 1, 0, [0, 0, 0, 1, 1, 0, 0, 0]>, <73, 12, 28, 16, 3, 1, 0, [0, 0, 0, 1, 1, 0, 0, 0]>, <74, 13, 29, 16, 3, 1, 0, [0, 0, 0, 1, 1, 0, 0, 0]>, <75, 0, 16, 16, 4, 0, 1, [1, 1, 0, 0, 0, 0, 0, 0]>, <76, 1, 17, 16, 4, 0, 1, [1, 1, 0, 0, 0, 0, 0, 0]>, <77, 2, 18, 16, 4, 0, 1, [1, 1, 0, 0, 0, 0, 0, 0]>, <78, 3, 19, 16, 4, 0, 1, [1, 1, 0, 0, 0, 0, 0, 0]>, <79, 4, 20, 16, 4, 0, 1, [1, 1, 0, 0, 0, 0, 0, 0]>, <80, 5, 21, 16, 4, 0, 1, [1, 1, 0, 0, 0, 0, 0, 0]>, <81, 6, 22, 16, 4, 0, 1, [1, 1, 0, 0, 0, 0, 0, 0]>, <82, 7, 23, 16, 4, 0, 1, [1, 1, 0, 0, 0, 0, 0, 0]>, <83, 8, 24, 16, 4, 0, 1, [1, 1, 0, 0, 0, 0, 0, 0]>, <84, 9, 25, 16, 4, 0, 1, [1, 1, 0, 0, 0, 0, 0, 0]>, <85, 10, 26, 16, 4, 0, 1, [1, 1, 0, 0, 0, 0, 0, 0]>, <86, 11, 27, 16, 4, 0, 1, [1, 1, 0, 0, 0, 0, 0, 0]>, <87, 12, 28, 16, 4, 0, 1, [1, 1, 0, 0, 0, 0, 0, 0]>, <88, 13, 29, 16, 4, 0, 1, [1, 1, 0, 0, 0, 0, 0, 0]>, <89, 0, 14, 14, 5, 0, 0, [0, 0, 0, 0, 0, 0, 1, 1]>, <90, 1, 15, 14, 5, 0, 0, [0, 0, 0, 0, 0, 0, 1, 1]>, <91, 2, 16, 14, 5, 0, 0, [0, 0, 0, 0, 0, 0, 1, 1]>, <92, 3, 17, 14, 5, 0, 0, [0, 0, 0, 0, 0, 0, 1, 1]>, <93, 4, 18, 14, 5, 0, 0, [0, 0, 0, 0, 0, 0, 1, 1]>, <94, 5, 19, 14, 5, 0, 0, [0, 0, 0, 0, 0, 0, 1, 1]>, <95, 6, 20, 14, 5, 0, 0, [0, 0, 0, 0, 0, 0, 1, 1]>, <96, 7, 21, 14, 5, 0, 0, [0, 0, 0, 0, 0, 0, 1, 1]>, <97, 8, 22, 14, 5, 0, 0, [0, 0, 0, 0, 0, 0, 1, 1]>, <98, 9, 23, 14, 5, 0, 0, [0, 0, 0, 0, 0, 0, 1, 1]>, <99, 10, 24, 14, 5, 0, 0, [0, 0, 0, 0, 0, 0, 1, 1]>, <100, 11, 25, 14, 5, 0, 0, [0, 0, 0, 0, 0, 0, 1, 1]>, <101, 12, 26, 14, 5, 0, 0, [0, 0, 0, 0, 0, 0, 1, 1]>, <102, 13, 27, 14, 5, 0, 0, [0, 0, 0, 0, 0, 0, 1, 1]>, <103, 14, 28, 14, 5, 0, 0, [0, 0, 0, 0, 0, 0, 1, 1]>, <104, 15, 29, 14, 5, 0, 0, [0, 0, 0, 0, 0, 0, 1, 1]>, <105, 0, 17, 17, 6, 0, 0, [1, 1, 0, 0, 0, 0, 0, 0]>, <106, 1, 18, 17, 6, 0, 0, [1, 1, 0, 0, 0, 0, 0, 0]>, <107, 2, 19, 17, 6, 0, 0, [1, 1, 0, 0, 0, 0, 0, 0]>, <108, 3, 20, 17, 6, 0, 0, [1, 1, 0, 0, 0, 0, 0, 0]>, <109, 4, 21, 17, 6, 0, 0, [1, 1, 0, 0, 0, 0, 0, 0]>, <110, 5, 22, 17, 6, 0, 0, [1, 1, 0, 0, 0, 0, 0, 0]>, <111, 6, 23, 17, 6, 0, 0, [1, 1, 0, 0, 0, 0, 0, 0]>, <112, 7, 24, 17, 6, 0, 0, [1, 1, 0, 0, 0, 0, 0, 0]>, <113, 8, 25, 17, 6, 0, 0, [1, 1, 0, 0, 0, 0, 0, 0]>, <114, 9, 26, 17, 6, 0, 0, [1, 1, 0, 0, 0, 0, 0, 0]>, <115, 10, 27, 17, 6, 0, 0, [1, 1, 0, 0, 0, 0, 0, 0]>, <116, 11, 28, 17, 6, 0, 0, [1, 1, 0, 0, 0, 0, 0, 0]>, <117, 12, 29, 17, 6, 0, 0, [1, 1, 0, 0, 0, 0, 0, 0]>, <118, 0, 17, 17, 7, 0, 0, [0, 0, 0, 0, 1, 1, 0, 0]>, <119, 1, 18, 17, 7, 0, 0, [0, 0, 0, 0, 1, 1, 0, 0]>, <120, 2, 19, 17, 7, 0, 0, [0, 0, 0, 0, 1, 1, 0, 0]>, <121, 3, 20, 17, 7, 0, 0, [0, 0, 0, 0, 1, 1, 0, 0]>, <122, 4, 21, 17, 7, 0, 0, [0, 0, 0, 0, 1, 1, 0, 0]>, <123, 5, 22, 17, 7, 0, 0, [0, 0, 0, 0, 1, 1, 0, 0]>, <124, 6, 23, 17, 7, 0, 0, [0, 0, 0, 0, 1, 1, 0, 0]>, <125, 7, 24, 17, 7, 0, 0, [0, 0, 0, 0, 1, 1, 0, 0]>, <126, 8, 25, 17, 7, 0, 0, [0, 0, 0, 0, 1, 1, 0, 0]>, <127, 9, 26, 17, 7, 0, 0, [0, 0, 0, 0, 1, 1, 0, 0]>, <128, 10, 27, 17, 7, 0, 0, [0, 0, 0, 0, 1, 1, 0, 0]>, <129, 11, 28, 17, 7, 0, 0, [0, 0, 0, 0, 1, 1, 0, 0]>, <130, 12, 29, 17, 7, 0, 0, [0, 0, 0, 0, 1, 1, 0, 0]>, <131, 0, 14, 14, 8, 1, 0, [0, 0, 0, 1, 1, 0, 0, 0]>, <132, 1, 15, 14, 8, 1, 0, [0, 0, 0, 1, 1, 0, 0, 0]>, <133, 2, 16, 14, 8, 1, 0, [0, 0, 0, 1, 1, 0, 0, 0]>, <134, 3, 17, 14, 8, 1, 0, [0, 0, 0, 1, 1, 0, 0, 0]>, <135, 4, 18, 14, 8, 1, 0, [0, 0, 0, 1, 1, 0, 0, 0]>, <136, 5, 19, 14, 8, 1, 0, [0, 0, 0, 1, 1, 0, 0, 0]>, <137, 6, 20, 14, 8, 1, 0, [0, 0, 0, 1, 1, 0, 0, 0]>, <138, 7, 21, 14, 8, 1, 0, [0, 0, 0, 1, 1, 0, 0, 0]>, <139, 8, 22, 14, 8, 1, 0, [0, 0, 0, 1, 1, 0, 0, 0]>, <140, 9, 23, 14, 8, 1, 0, [0, 0, 0, 1, 1, 0, 0, 0]>, <141, 10, 24, 14, 8, 1, 0, [0, 0, 0, 1, 1, 0, 0, 0]>, <142, 11, 25, 14, 8, 1, 0, [0, 0, 0, 1, 1, 0, 0, 0]>, <143, 12, 26, 14, 8, 1, 0, [0, 0, 0, 1, 1, 0, 0, 0]>, <144, 13, 27, 14, 8, 1, 0, [0, 0, 0, 1, 1, 0, 0, 0]>, <145, 14, 28, 14, 8, 1, 0, [0, 0, 0, 1, 1, 0, 0, 0]>, <146, 15, 29, 14, 8, 1, 0, [0, 0, 0, 1, 1, 0, 0, 0]>, <147, 0, 15, 15, 9, 0, 0, [0, 0, 0, 0, 0, 0, 1, 1]>, <148, 1, 16, 15, 9, 0, 0, [0, 0, 0, 0, 0, 0, 1, 1]>, <149, 2, 17, 15, 9, 0, 0, [0, 0, 0, 0, 0, 0, 1, 1]>, <150, 3, 18, 15, 9, 0, 0, [0, 0, 0, 0, 0, 0, 1, 1]>, <151, 4, 19, 15, 9, 0, 0, [0, 0, 0, 0, 0, 0, 1, 1]>, <152, 5, 20, 15, 9, 0, 0, [0, 0, 0, 0, 0, 0, 1, 1]>, <153, 6, 21, 15, 9, 0, 0, [0, 0, 0, 0, 0, 0, 1, 1]>, <154, 7, 22, 15, 9, 0, 0, [0, 0, 0, 0, 0, 0, 1, 1]>, <155, 8, 23, 15, 9, 0, 0, [0, 0, 0, 0, 0, 0, 1, 1]>, <156, 9, 24, 15, 9, 0, 0, [0, 0, 0, 0, 0, 0, 1, 1]>, <157, 10, 25, 15, 9, 0, 0, [0, 0, 0, 0, 0, 0, 1, 1]>, <158, 11, 26, 15, 9, 0, 0, [0, 0, 0, 0, 0, 0, 1, 1]>, <159, 12, 27, 15, 9, 0, 0, [0, 0, 0, 0, 0, 0, 1, 1]>, <160, 13, 28, 15, 9, 0, 0, [0, 0, 0, 0, 0, 0, 1, 1]>, <161, 14, 29, 15, 9, 0, 0, [0, 0, 0, 0, 0, 0, 1, 1]>, <162, 0, 17, 17, 10, 0, 1, [0, 0, 1, 1, 0, 0, 0, 0]>, <163, 1, 18, 17, 10, 0, 1, [0, 0, 1, 1, 0, 0, 0, 0]>, <164, 2, 19, 17, 10, 0, 1, [0, 0, 1, 1, 0, 0, 0, 0]>, <165, 3, 20, 17, 10, 0, 1, [0, 0, 1, 1, 0, 0, 0, 0]>, <166, 4, 21, 17, 10, 0, 1, [0, 0, 1, 1, 0, 0, 0, 0]>, <167, 5, 22, 17, 10, 0, 1, [0, 0, 1, 1, 0, 0, 0, 0]>, <168, 6, 23, 17, 10, 0, 1, [0, 0, 1, 1, 0, 0, 0, 0]>, <169, 7, 24, 17, 10, 0, 1, [0, 0, 1, 1, 0, 0, 0, 0]>, <170, 8, 25, 17, 10, 0, 1, [0, 0, 1, 1, 0, 0, 0, 0]>, <171, 9, 26, 17, 10, 0, 1, [0, 0, 1, 1, 0, 0, 0, 0]>, <172, 10, 27, 17, 10, 0, 1, [0, 0, 1, 1, 0, 0, 0, 0]>, <173, 11, 28, 17, 10, 0, 1, [0, 0, 1, 1, 0, 0, 0, 0]>, <174, 12, 29, 17, 10, 0, 1, [0, 0, 1, 1, 0, 0, 0, 0]>, <175, 0, 14, 14, 11, 0, 0, [1, 0, 0, 0, 0, 0, 0, 1]>, <176, 1, 15, 14, 11, 0, 0, [1, 0, 0, 0, 0, 0, 0, 1]>, <177, 2, 16, 14, 11, 0, 0, [1, 0, 0, 0, 0, 0, 0, 1]>, <178, 3, 17, 14, 11, 0, 0, [1, 0, 0, 0, 0, 0, 0, 1]>, <179, 4, 18, 14, 11, 0, 0, [1, 0, 0, 0, 0, 0, 0, 1]>, <180, 5, 19, 14, 11, 0, 0, [1, 0, 0, 0, 0, 0, 0, 1]>, <181, 6, 20, 14, 11, 0, 0, [1, 0, 0, 0, 0, 0, 0, 1]>, <182, 7, 21, 14, 11, 0, 0, [1, 0, 0, 0, 0, 0, 0, 1]>, <183, 8, 22, 14, 11, 0, 0, [1, 0, 0, 0, 0, 0, 0, 1]>, <184, 9, 23, 14, 11, 0, 0, [1, 0, 0, 0, 0, 0, 0, 1]>, <185, 10, 24, 14, 11, 0, 0, [1, 0, 0, 0, 0, 0, 0, 1]>, <186, 11, 25, 14, 11, 0, 0, [1, 0, 0, 0, 0, 0, 0, 1]>, <187, 12, 26, 14, 11, 0, 0, [1, 0, 0, 0, 0, 0, 0, 1]>, <188, 13, 27, 14, 11, 0, 0, [1, 0, 0, 0, 0, 0, 0, 1]>, <189, 14, 28, 14, 11, 0, 0, [1, 0, 0, 0, 0, 0, 0, 1]>, <190, 15, 29, 14, 11, 0, 0, [1, 0, 0, 0, 0, 0, 0, 1]>, <191, 0, 13, 13, 12, 0, 0, [0, 0, 0, 0, 0, 0, 1, 1]>, <192, 1, 14, 13, 12, 0, 0, [0, 0, 0, 0, 0, 0, 1, 1]>, <193, 2, 15, 13, 12, 0, 0, [0, 0, 0, 0, 0, 0, 1, 1]>, <194, 3, 16, 13, 12, 0, 0, [0, 0, 0, 0, 0, 0, 1, 1]>, <195, 4, 17, 13, 12, 0, 0, [0, 0, 0, 0, 0, 0, 1, 1]>, <196, 5, 18, 13, 12, 0, 0, [0, 0, 0, 0, 0, 0, 1, 1]>, <197, 7, 20, 13, 12, 0, 0, [0, 0, 0, 0, 0, 0, 1, 1]>, <198, 8, 21, 13, 12, 0, 0, [0, 0, 0, 0, 0, 0, 1, 1]>, <199, 9, 22, 13, 12, 0, 0, [0, 0, 0, 0, 0, 0, 1, 1]>, <200, 10, 23, 13, 12, 0, 0, [0, 0, 0, 0, 0, 0, 1, 1]>, <201, 11, 24, 13, 12, 0, 0, [0, 0, 0, 0, 0, 0, 1, 1]>, <202, 12, 25, 13, 12, 0, 0, [0, 0, 0, 0, 0, 0, 1, 1]>, <203, 13, 26, 13, 12, 0, 0, [0, 0, 0, 0, 0, 0, 1, 1]>, <204, 14, 27, 13, 12, 0, 0, [0, 0, 0, 0, 0, 0, 1, 1]>, <205, 15, 28, 13, 12, 0, 0, [0, 0, 0, 0, 0, 0, 1, 1]>, <206, 16, 29, 13, 12, 0, 0, [0, 0, 0, 0, 0, 0, 1, 1]>, <207, 0, 18, 18, 13, 1, 0, [0, 0, 0, 1, 1, 0, 0, 0]>, <208, 1, 19, 18, 13, 1, 0, [0, 0, 0, 1, 1, 0, 0, 0]>, <209, 2, 20, 18, 13, 1, 0, [0, 0, 0, 1, 1, 0, 0, 0]>, <210, 3, 21, 18, 13, 1, 0, [0, 0, 0, 1, 1, 0, 0, 0]>, <211, 4, 22, 18, 13, 1, 0, [0, 0, 0, 1, 1, 0, 0, 0]>, <212, 5, 23, 18, 13, 1, 0, [0, 0, 0, 1, 1, 0, 0, 0]>, <213, 6, 24, 18, 13, 1, 0, [0, 0, 0, 1, 1, 0, 0, 0]>, <214, 7, 25, 18, 13, 1, 0, [0, 0, 0, 1, 1, 0, 0, 0]>, <215, 8, 26, 18, 13, 1, 0, [0, 0, 0, 1, 1, 0, 0, 0]>, <216, 9, 27, 18, 13, 1, 0, [0, 0, 0, 1, 1, 0, 0, 0]>, <217, 10, 28, 18, 13, 1, 0, [0, 0, 0, 1, 1, 0, 0, 0]>, <218, 11, 29, 18, 13, 1, 0, [0, 0, 0, 1, 1, 0, 0, 0]>, <219, 0, 14, 14, 14, 0, 0, [1, 1, 0, 0, 0, 0, 0, 0]>, <220, 1, 15, 14, 14, 0, 0, [1, 1, 0, 0, 0, 0, 0, 0]>, <221, 2, 16, 14, 14, 0, 0, [1, 1, 0, 0, 0, 0, 0, 0]>, <222, 3, 17, 14, 14, 0, 0, [1, 1, 0, 0, 0, 0, 0, 0]>, <223, 4, 18, 14, 14, 0, 0, [1, 1, 0, 0, 0, 0, 0, 0]>, <224, 5, 19, 14, 14, 0, 0, [1, 1, 0, 0, 0, 0, 0, 0]>, <225, 6, 20, 14, 14, 0, 0, [1, 1, 0, 0, 0, 0, 0, 0]>, <226, 7, 21, 14, 14, 0, 0, [1, 1, 0, 0, 0, 0, 0, 0]>, <227, 8, 22, 14, 14, 0, 0, [1, 1, 0, 0, 0, 0, 0, 0]>, <228, 9, 23, 14, 14, 0, 0, [1, 1, 0, 0, 0, 0, 0, 0]>, <229, 10, 24, 14, 14, 0, 0, [1, 1, 0, 0, 0, 0, 0, 0]>, <230, 11, 25, 14, 14, 0, 0, [1, 1, 0, 0, 0, 0, 0, 0]>, <231, 12, 26, 14, 14, 0, 0, [1, 1, 0, 0, 0, 0, 0, 0]>, <232, 13, 27, 14, 14, 0, 0, [1, 1, 0, 0, 0, 0, 0, 0]>, <233, 14, 28, 14, 14, 0, 0, [1, 1, 0, 0, 0, 0, 0, 0]>, <234, 15, 29, 14, 14, 0, 0, [1, 1, 0, 0, 0, 0, 0, 0]>, <235, 0, 15, 15, 15, 0, 0, [1, 0, 0, 0, 0, 0, 0, 1]>, <236, 1, 16, 15, 15, 0, 0, [1, 0, 0, 0, 0, 0, 0, 1]>, <237, 2, 17, 15, 15, 0, 0, [1, 0, 0, 0, 0, 0, 0, 1]>, <238, 3, 18, 15, 15, 0, 0, [1, 0, 0, 0, 0, 0, 0, 1]>, <239, 4, 19, 15, 15, 0, 0, [1, 0, 0, 0, 0, 0, 0, 1]>, <240, 5, 20, 15, 15, 0, 0, [1, 0, 0, 0, 0, 0, 0, 1]>, <241, 6, 21, 15, 15, 0, 0, [1, 0, 0, 0, 0, 0, 0, 1]>, <242, 7, 22, 15, 15, 0, 0, [1, 0, 0, 0, 0, 0, 0, 1]>, <243, 8, 23, 15, 15, 0, 0, [1, 0, 0, 0, 0, 0, 0, 1]>, <244, 9, 24, 15, 15, 0, 0, [1, 0, 0, 0, 0, 0, 0, 1]>, <245, 10, 25, 15, 15, 0, 0, [1, 0, 0, 0, 0, 0, 0, 1]>, <246, 11, 26, 15, 15, 0, 0, [1, 0, 0, 0, 0, 0, 0, 1]>, <247, 12, 27, 15, 15, 0, 0, [1, 0, 0, 0, 0, 0, 0, 1]>, <248, 13, 28, 15, 15, 0, 0, [1, 0, 0, 0, 0, 0, 0, 1]>, <249, 14, 29, 15, 15, 0, 0, [1, 0, 0, 0, 0, 0, 0, 1]>, <250, 0, 15, 15, 16, 0, 0, [1, 1, 0, 0, 0, 0, 0, 0]>, <251, 1, 16, 15, 16, 0, 0, [1, 1, 0, 0, 0, 0, 0, 0]>, <252, 2, 17, 15, 16, 0, 0, [1, 1, 0, 0, 0, 0, 0, 0]>, <253, 3, 18, 15, 16, 0, 0, [1, 1, 0, 0, 0, 0, 0, 0]>, <254, 4, 19, 15, 16, 0, 0, [1, 1, 0, 0, 0, 0, 0, 0]>, <255, 5, 20, 15, 16, 0, 0, [1, 1, 0, 0, 0, 0, 0, 0]>, <256, 6, 21, 15, 16, 0, 0, [1, 1, 0, 0, 0, 0, 0, 0]>, <257, 7, 22, 15, 16, 0, 0, [1, 1, 0, 0, 0, 0, 0, 0]>, <258, 8, 23, 15, 16, 0, 0, [1, 1, 0, 0, 0, 0, 0, 0]>, <259, 9, 24, 15, 16, 0, 0, [1, 1, 0, 0, 0, 0, 0, 0]>, <260, 10, 25, 15, 16, 0, 0, [1, 1, 0, 0, 0, 0, 0, 0]>, <261, 11, 26, 15, 16, 0, 0, [1, 1, 0, 0, 0, 0, 0, 0]>, <262, 12, 27, 15, 16, 0, 0, [1, 1, 0, 0, 0, 0, 0, 0]>, <263, 13, 28, 15, 16, 0, 0, [1, 1, 0, 0, 0, 0, 0, 0]>, <264, 14, 29, 15, 16, 0, 0, [1, 1, 0, 0, 0, 0, 0, 0]>, <265, 0, 15, 15, 17, 0, 0, [0, 0, 0, 0, 1, 1, 0, 0]>, <266, 1, 16, 15, 17, 0, 0, [0, 0, 0, 0, 1, 1, 0, 0]>, <267, 2, 17, 15, 17, 0, 0, [0, 0, 0, 0, 1, 1, 0, 0]>, <268, 3, 18, 15, 17, 0, 0, [0, 0, 0, 0, 1, 1, 0, 0]>, <269, 4, 19, 15, 17, 0, 0, [0, 0, 0, 0, 1, 1, 0, 0]>, <270, 5, 20, 15, 17, 0, 0, [0, 0, 0, 0, 1, 1, 0, 0]>, <271, 6, 21, 15, 17, 0, 0, [0, 0, 0, 0, 1, 1, 0, 0]>, <272, 7, 22, 15, 17, 0, 0, [0, 0, 0, 0, 1, 1, 0, 0]>, <273, 8, 23, 15, 17, 0, 0, [0, 0, 0, 0, 1, 1, 0, 0]>, <274, 9, 24, 15, 17, 0, 0, [0, 0, 0, 0, 1, 1, 0, 0]>, <275, 10, 25, 15, 17, 0, 0, [0, 0, 0, 0, 1, 1, 0, 0]>, <276, 11, 26, 15, 17, 0, 0, [0, 0, 0, 0, 1, 1, 0, 0]>, <277, 12, 27, 15, 17, 0, 0, [0, 0, 0, 0, 1, 1, 0, 0]>, <278, 13, 28, 15, 17, 0, 0, [0, 0, 0, 0, 1, 1, 0, 0]>, <279, 14, 29, 15, 17, 0, 0, [0, 0, 0, 0, 1, 1, 0, 0]>, <280, 0, 14, 14, 18, 1, 0, [1, 1, 0, 0, 0, 0, 0, 0]>, <281, 1, 15, 14, 18, 1, 0, [1, 1, 0, 0, 0, 0, 0, 0]>, <282, 2, 16, 14, 18, 1, 0, [1, 1, 0, 0, 0, 0, 0, 0]>, <283, 3, 17, 14, 18, 1, 0, [1, 1, 0, 0, 0, 0, 0, 0]>, <284, 4, 18, 14, 18, 1, 0, [1, 1, 0, 0, 0, 0, 0, 0]>, <285, 5, 19, 14, 18, 1, 0, [1, 1, 0, 0, 0, 0, 0, 0]>, <286, 6, 20, 14, 18, 1, 0, [1, 1, 0, 0, 0, 0, 0, 0]>, <287, 7, 21, 14, 18, 1, 0, [1, 1, 0, 0, 0, 0, 0, 0]>, <288, 8, 22, 14, 18, 1, 0, [1, 1, 0, 0, 0, 0, 0, 0]>, <289, 9, 23, 14, 18, 1, 0, [1, 1, 0, 0, 0, 0, 0, 0]>, <290, 10, 24, 14, 18, 1, 0, [1, 1, 0, 0, 0, 0, 0, 0]>, <291, 11, 25, 14, 18, 1, 0, [1, 1, 0, 0, 0, 0, 0, 0]>, <292, 12, 26, 14, 18, 1, 0, [1, 1, 0, 0, 0, 0, 0, 0]>, <293, 13, 27, 14, 18, 1, 0, [1, 1, 0, 0, 0, 0, 0, 0]>, <294, 14, 28, 14, 18, 1, 0, [1, 1, 0, 0, 0, 0, 0, 0]>, <295, 15, 29, 14, 18, 1, 0, [1, 1, 0, 0, 0, 0, 0, 0]>, <296, 0, 14, 14, 19, 0, 0, [1, 1, 0, 0, 0, 0, 0, 0]>, <297, 1, 15, 14, 19, 0, 0, [1, 1, 0, 0, 0, 0, 0, 0]>, <298, 2, 16, 14, 19, 0, 0, [1, 1, 0, 0, 0, 0, 0, 0]>, <299, 3, 17, 14, 19, 0, 0, [1, 1, 0, 0, 0, 0, 0, 0]>, <300, 4, 18, 14, 19, 0, 0, [1, 1, 0, 0, 0, 0, 0, 0]>, <301, 5, 19, 14, 19, 0, 0, [1, 1, 0, 0, 0, 0, 0, 0]>, <302, 6, 20, 14, 19, 0, 0, [1, 1, 0, 0, 0, 0, 0, 0]>, <303, 7, 21, 14, 19, 0, 0, [1, 1, 0, 0, 0, 0, 0, 0]>, <304, 8, 22, 14, 19, 0, 0, [1, 1, 0, 0, 0, 0, 0, 0]>, <305, 9, 23, 14, 19, 0, 0, [1, 1, 0, 0, 0, 0, 0, 0]>, <306, 10, 24, 14, 19, 0, 0, [1, 1, 0, 0, 0, 0, 0, 0]>, <307, 11, 25, 14, 19, 0, 0, [1, 1, 0, 0, 0, 0, 0, 0]>, <308, 12, 26, 14, 19, 0, 0, [1, 1, 0, 0, 0, 0, 0, 0]>, <309, 13, 27, 14, 19, 0, 0, [1, 1, 0, 0, 0, 0, 0, 0]>, <310, 14, 28, 14, 19, 0, 0, [1, 1, 0, 0, 0, 0, 0, 0]>, <311, 15, 29, 14, 19, 0, 0, [1, 1, 0, 0, 0, 0, 0, 0]>, <312, 0, 18, 18, 20, 0, 0, [0, 0, 0, 0, 0, 1, 1, 0]>, <313, 1, 19, 18, 20, 0, 0, [0, 0, 0, 0, 0, 1, 1, 0]>, <314, 2, 20, 18, 20, 0, 0, [0, 0, 0, 0, 0, 1, 1, 0]>, <315, 3, 21, 18, 20, 0, 0, [0, 0, 0, 0, 0, 1, 1, 0]>, <316, 4, 22, 18, 20, 0, 0, [0, 0, 0, 0, 0, 1, 1, 0]>, <317, 5, 23, 18, 20, 0, 0, [0, 0, 0, 0, 0, 1, 1, 0]>, <318, 6, 24, 18, 20, 0, 0, [0, 0, 0, 0, 0, 1, 1, 0]>, <319, 7, 25, 18, 20, 0, 0, [0, 0, 0, 0, 0, 1, 1, 0]>, <320, 8, 26, 18, 20, 0, 0, [0, 0, 0, 0, 0, 1, 1, 0]>, <321, 9, 27, 18, 20, 0, 0, [0, 0, 0, 0, 0, 1, 1, 0]>, <322, 10, 28, 18, 20, 0, 0, [0, 0, 0, 0, 0, 1, 1, 0]>, <323, 11, 29, 18, 20, 0, 0, [0, 0, 0, 0, 0, 1, 1, 0]>, <324, 0, 16, 16, 21, 0, 0, [1, 1, 0, 0, 0, 0, 0, 0]>, <325, 1, 17, 16, 21, 0, 0, [1, 1, 0, 0, 0, 0, 0, 0]>, <326, 2, 18, 16, 21, 0, 0, [1, 1, 0, 0, 0, 0, 0, 0]>, <327, 3, 19, 16, 21, 0, 0, [1, 1, 0, 0, 0, 0, 0, 0]>, <328, 4, 20, 16, 21, 0, 0, [1, 1, 0, 0, 0, 0, 0, 0]>, <329, 5, 21, 16, 21, 0, 0, [1, 1, 0, 0, 0, 0, 0, 0]>, <330, 6, 22, 16, 21, 0, 0, [1, 1, 0, 0, 0, 0, 0, 0]>, <331, 7, 23, 16, 21, 0, 0, [1, 1, 0, 0, 0, 0, 0, 0]>, <332, 8, 24, 16, 21, 0, 0, [1, 1, 0, 0, 0, 0, 0, 0]>, <333, 9, 25, 16, 21, 0, 0, [1, 1, 0, 0, 0, 0, 0, 0]>, <334, 10, 26, 16, 21, 0, 0, [1, 1, 0, 0, 0, 0, 0, 0]>, <335, 11, 27, 16, 21, 0, 0, [1, 1, 0, 0, 0, 0, 0, 0]>, <336, 12, 28, 16, 21, 0, 0, [1, 1, 0, 0, 0, 0, 0, 0]>, <337, 13, 29, 16, 21, 0, 0, [1, 1, 0, 0, 0, 0, 0, 0]>};
